Ga Li Sn
 1.0000000000000000
     9.2206510363980012    0.0000000000000000    0.0000000000000000
     8.6737257595509689    3.1283998646035953    0.0000000000000000
     8.6737262401411712    1.5163912285817351    2.7363189242796842
 Ga  Li  Sn 
   1   2   1
Direct
 -0.8706320934824695  0.7151949719328485  0.8522049863812492
  0.3444361829400911 -0.6244869226877553  3.2067731481233404
  3.5364141457124907  2.2645212223048308 -4.3295941709975931
  0.9448483524870435  0.6576869605884053  0.6099485688574259
