Ga Li Sn
 1.0000000000000000
     5.0343464577378825    0.0000000000000000    0.0000000000000000
     2.5171732656333186    4.3598720102542048    0.0000000000000000
     2.5171733655192345    1.4532906553879328    4.1105267801404128
 Ga  Li  Sn 
   1   1   2
Direct
  1.1982489364218631  0.9700600198243003  0.8565157867954517
  0.5920664711033694  0.5026724213312628  0.3712865965072709
  0.8142895099812050  0.7611107042201423  0.6484438771761114
  0.1863244515688508  0.3607994159070970  0.1730803927317965
