Ga Li Sn
 1.0000000000000000
     6.4835295192034081    0.0000000000000000    0.0000000000000000
     4.8969287583158909    4.2492641425018656    0.0000000000000000
    -5.6902290728843399   -2.1246318971072822    2.2679038133633105
 Ga  Li  Sn 
   1   1   1
Direct
  0.2548135904076197  0.9607007556821966  1.9516719047671480
 -3.9910578808105464  0.1134275720006394 -4.4276169330072586
  0.4314825443634736  0.8568569026791960  0.4078257696079767
