Li Sn
 1.0000000000000000
     4.7394097844741250    0.0000000000000000    0.0000000000000000
     2.3694720945683567    4.1030188153715415    0.0000000000000000
     2.3638813565644776    1.3649507734146955    6.8577848406565076
 Li  Sn 
   5   2
Direct
  1.3169110176418004  0.7949633054666092  0.1119919431813836
 -0.0377983916945032  0.1272358982886110  0.4832541426926980
  1.8569831656311255  0.1715904711344598  0.8820494476838742
 -0.0164949472877033  0.5458021924434275  1.0154536548813340
  0.2091004140393002  0.5030998066436483  0.5688552907336035
 -0.4759809332442506  0.7965709514905210  0.7031813062125155
  0.5953303229816582  0.0157915025564530  0.2758725882109409
