Li Sn
 1.0000000000000000
     4.5933830277309964    0.0000000000000000    0.0000000000000000
    -0.0027137953814783    5.7979629196639308    0.0000000000000000
    -2.2963053071928541   -3.2773564780146973    6.9726252170491607
 Li  Sn 
   7   3
Direct
  0.3736939373796750  0.6041852060185195  0.0199837797994671
  0.5266677859508971  0.1749665820311938  0.4114088850657560
  1.0436404917359168  1.3516463011382212  0.2576565821784325
  0.9458783200289195  0.8380897773124035  0.1987952729699158
  0.1086425536315575  2.1506273425238356  0.6448640639912810
  0.1639298504046786  1.6632269268034012  0.5993011580367056
  0.8315925724096311  0.7422001838112376  0.8205179613955775
  0.4205045470068423  0.1244912442836768  0.0296562414902940
  0.7481180477691166  0.3248620037214044  0.8596165590367115
  0.6033807618440948  0.7214832719555285  0.4571379048262934
