Li Sn
 1.0000000000000000
     5.2798490717610465    0.0000000000000000    0.0000000000000000
    -1.8227693709581863    5.1496651000969820    0.0000000000000000
    -0.0081411527658169   -0.0133434358660984    9.5296350079017120
 Li  Sn 
   6   6
Direct
  1.2005407530786920 -0.2748541759842801  1.6059316272893582
  0.7199252905497725  1.3349976765692564  0.5987867005452208
  0.7097191554048109  0.2190936441767887  0.8552750101964496
  1.6328070104468326  0.1719019631555793  0.2195627425378223
  1.2190212903483875  0.1850063017341631  0.0607898288940693
  1.6754749776923343  0.7953498755450140  0.7333824224543709
  1.2346113416130267  1.2580357647754530  0.7267463801464933
  0.6830211977592090 -0.2533714930698381  1.0902324079340369
  0.1574431363322107  0.6204766510396834  0.2223300078208638
  1.1378987205812388  1.1590964041623049  0.3929703817425035
  0.6116052209454669  0.6937071616751942  0.4188666941061187
  0.1527058168146227 -0.2978128221554517 -0.1140014087169599
