Li Sn
 1.0000000000000000
     4.7880877926490495    0.0000000000000000    0.0000000000000000
    -0.0174214736550777    4.9135734014111083    0.0000000000000000
    -0.0054302072089262   -0.0006592948459886    6.1686896866715921
 Li  Sn 
   6   2
Direct
  0.3082852864057699  0.5287116627340528  0.2123422090674953
  0.3452683818193895  1.0683297382791441 -0.0501669526265110
  0.7968963923633325  0.9100818478354985  0.7207102668460185
  0.8234443244074912  0.4550127942721658  0.4822298328930074
  0.2360812291428638  0.5149447344119051  0.6914871298298207
  0.8369019998142583  0.9286497823708657  0.1784364743962907
  0.3361101540831033  0.9999187681491908  0.4338353197507325
  0.8185434508655265  0.4298206837262188 -0.0147174079017914
