Ga Li
 1.0000000000000000
     5.2027554622179624    0.0000000000000000    0.0000000000000000
     3.3362414361015618    3.9922624133252902    0.0000000000000000
     3.3362414548176886    1.5598026851443649    3.6749386039840028
 Ga  Li 
   2   3
Direct
  0.2467626838730170  0.3925636380813901 -0.0750184876721969
  0.7947720236377851  1.0387321351992631  0.6225029934137547
 -0.0334470337850004  1.2685813187147599 -0.2428506177921531
  0.5878631056267082  0.7153407897068043  0.3586979942145310
  0.2506774258933551  0.7654937506167317  0.1886615387303660
