Li Sn
 1.0000000000000000
     4.6279999139512187    0.0000000000000000    0.0000000000000000
    -0.0130049937128915    6.4406289500923091    0.0000000000000000
    -2.2934055592580340   -1.7480446397302314    8.1505448926217703
 Li  Sn 
   3   7
Direct
  0.1269012166302413  0.1500530064428372  0.8576886966428149
  0.0097591381201712  0.5234618240089736  0.4229870011183801
  0.2220829852479464  0.7110028500007352  0.1764998439180492
  0.0609811877489122  0.7027873444835282  0.8296371146541458
  0.6666688889655168  0.9615681861432330  1.0528268991436638
  0.4949728349212809  0.3490537818217306  0.6468104875845240
  0.4917734158308579  0.8193240444134867  0.5753372172192666
 -0.0778391375507095  1.0648437051471240  0.4569793211318531
  0.3248694617581662  0.2442718577808725  0.2111067631806922
  0.7582917714958055  0.4783923347343282  1.0494088887328934
