Ga Li Sn
 1.0000000000000000
     5.1536110440116776    0.0000000000000000    0.0000000000000000
    -1.8100303059242682    4.8252975884179108    0.0000000000000000
     0.0000000379732106   -0.0000000770608389    3.0593961553200146
 Ga  Li  Sn 
   1   2   1
Direct
 -0.0301217481630508  0.5855005734656520  0.5494776088055837
 -0.0117244758754057  0.1185637244342474  1.2063260893786911
  0.4212462678604831  0.5920185225775900 -0.0077269809065540
  0.4450745611304289  0.1173665116612918  0.6040977663290389
