Li Sn
 1.0000000000000000
     4.7044291398452085    0.0000000000000000    0.0000000000000000
     2.3522025051008324    4.0760164165740829    0.0000000000000000
     2.3478484993816324    1.3511721389396636    4.6379079130781076
 Li  Sn 
   4   1
Direct
  0.4097205310272454  1.1058899098664647  0.4248750766737998
  0.9814598262108095  0.7197382701031589  0.6532544868307207
  0.8075025363240108  0.4529772878147950  0.2158206375004509
  0.6931710217095625  0.1148268778895766 -0.1394857680724325
  0.2721653552621612  0.8056372652168579 -0.0274341614296924
