Ga Li Sn
 1.0000000000000000
     9.2206510363980012    0.0000000000000000    0.0000000000000000
     8.6737257595509689    3.1283998646035953    0.0000000000000000
     8.6737262401411712    1.5163912285817351    2.7363189242796842
 Ga  Li  Sn 
   1   2   1
Direct
 -0.8697679512030034  0.6887918269127419  0.8926575743962506
  0.3355771401934714 -0.8386914751048618  3.4492496964618744
  3.7454835729144889  2.1926608451321785 -4.4863390413104165
  0.9322003822301225  0.6916406443921189  0.5794837802455544
