Ga Li
 1.0000000000000000
     4.4369194855313356    0.0000000000000000    0.0000000000000000
     2.2184594906715840    3.8424849030304640    0.0000000000000000
     2.2184596074969738    1.2808283689145559    3.6227294545706124
 Ga  Li 
   2   2
Direct
  1.0488461899651615  0.7263205186324466 -0.1832584539849210
  0.8225176114474435  0.4194564457657796  0.6483066129888964
  0.5353503000248263  0.1104221823522585  0.3918022256891108
  0.2003830679541093  0.0447169684043285  0.1232292534544048
