Li Sn
 1.0000000000000000
     4.4031990209086347    0.0000000000000000    0.0000000000000000
     0.0166379923481889    4.4073105143054292    0.0000000000000000
    -2.1959826080987073   -2.1092076856049928    4.3889639269864587
 Li  Sn 
   2   2
Direct
  0.7614871189655853  1.0643725889783553  0.4445521109971587
  1.1988862209072417  1.8180508883069721  0.4329507175763374
  0.8288489655435417  0.1673437660449890  1.0204179405424150
  0.1989702268146261  0.5674154170252732  0.8570331290744639
