Ga Li Sn
 1.0000000000000000
     3.3235237610951747    0.0000000000000000    0.0000000000000000
    -0.0000000371500945    3.3235237371077053    0.0000000000000000
     0.0000000797256361   -0.0000001630670931    6.5002659494523014
 Ga  Li  Sn 
   1   2   1
Direct
  0.6426850872819195  0.5421327684723504  0.6873234364966246
  0.2081354639555411  0.0130378197043606  0.9236931421946795
  0.0663140898685275 -0.0461653319509117  0.4783215894381619
  0.6700962488295766  0.4519786054551113  0.1851415628294445
