Ga Li Sn
 1.0000000000000000
     3.4529916514836012    0.0000000000000000    0.0000000000000000
     0.0000014270119467    3.4529935428775156    0.0000000000000000
    -0.0000041190623649    0.0000012291622504    7.5723529330011647
 Ga  Li  Sn 
   1   1   2
Direct
 -0.2985162336695703 -0.2252727537948332  0.5412038537931333
  0.3135578137135113  0.3654466455104595  0.7293404151468431
 -0.0209116529351393 -0.0901330241637703  0.9953766405063746
  0.2788440274550420  0.3234983907275603  0.3027942382473100
