Ga Li Sn
 1.0000000000000000
     4.2019420795662121    0.0000000000000000    0.0000000000000000
    -0.0000000339620369    4.2573537066485461    0.0000000000000000
    -0.0000000718848655    0.1022079776247519    4.2114981234418183
 Ga  Li  Sn 
   1   2   1
Direct
  0.8499147760604879  1.0088875416301781  0.4007547216348294
  0.9124678091981990  1.6405120775603377 -0.0179865242124666
  0.3450598318300195  0.4920186425499187  0.3702725490547334
  0.4145485162583289  1.0424619429002482 -0.1779377070072126
