Ga Li Sn
 1.0000000000000000
     5.5644348395787331    0.0000000000000000    0.0000000000000000
     2.0296073579026577    5.1810828918566409    0.0000000000000000
    -3.7970205358664018   -2.5905410879942643    3.1360255591104380
 Ga  Li  Sn 
   1   1   2
Direct
  0.2931699598177376  0.5708382736035608  0.0161754396881800
  0.1805452611074524  0.7641275997593139  0.6062339260544276
  0.8190983177961523  0.9870131457572400  0.9755174737154281
  0.6285091025403045  0.2640069387397197  0.5256100332511474
