Ga Li Sn
 1.0000000000000000
     3.6795324019708682    0.0000000000000000    0.0000000000000000
     0.0000000236460052    3.6795318648947033    0.0000000000000000
     0.0000001975088043   -0.0000001898303525    6.0378174013127621
 Ga  Li  Sn 
   2   1   1
Direct
  1.2160533546515706  0.9725159766162583  0.1539628932421175
  1.1744845722938013  0.9770031668040986  0.5911776794883198
  0.7125569712924571  0.6137715686821513  0.3490532268319721
  0.6566638405666485  0.4106691927712687  0.8739010630233781
