Li Sn
 1.0000000000000000
     4.3903568943733688    0.0000000000000000    0.0000000000000000
    -0.0020486353954403    4.4004207975137071    0.0000000000000000
    -2.0938990428489155   -2.1172921399920632   12.5426986646892740
 Li  Sn 
   7   5
Direct
  0.6164085787037140  0.0795024075917556  0.5837589029954383
  0.3210225169463442  0.3827618569030700  0.0992133339924422
  0.1612147567750717  0.2495663530138979  0.7399918401401701
  0.7248274250818310  0.3409492756593702  0.8634537752072365
  0.9890014672437341  0.4750755360824033  0.2576393815538587
  0.1941736298929594  0.6649503397147893  0.5964955615674198
  0.5211195444749570  0.5694372410537196  0.4227367346041714
  0.4939343002304996  0.9507583923470803  0.2951967478263418
  0.0740527241176634  0.0656670303457687  0.4758466381886212
  0.8775322052833940  0.8488136352588245  0.0977215288979790
  0.6722138693838626  0.7261368528813761  0.7430508130674837
  0.2077969945611247  0.8022167198780010  0.9280567756420531
