Ga Li Sn
 1.0000000000000000
     3.3176989818322089    0.0000000000000000    0.0000000000000000
    -0.0000000594527849    5.2995138583367627    0.0000000000000000
    -0.0000001839069250    2.0655870550862137    5.2596456415426438
 Ga  Li  Sn 
   1   1   2
Direct
 -0.4663621813909437  0.6322122536258032 -0.0629764229506959
  0.1031551298290602  0.2026460079232448  0.4289589332469879
 -0.6980694638935457  1.1145401430525328  0.0025721678983214
  1.9237162494667912 -0.3833703001761106  0.4624662592613843
