Ga Li Sn
 1.0000000000000000
     9.6805885098214350    0.0000000000000000    0.0000000000000000
     9.1462659272910116    3.1716887859015919    0.0000000000000000
     9.1462654933408309    1.5408366212489824    2.7722616763134686
 Ga  Li  Sn 
   2   1   1
Direct
 -0.1061198386780545  1.6816628245527918  1.4290730425948481
  2.2762995609215770 -0.5608082311427791 -0.1985694613065325
 -1.1965488522342083 -1.8377885867801305  3.7401700311447290
  1.0972115387203136  0.8945920776015626  0.2853641252282895
