Li Sn
 1.0000000000000000
     3.4978227690711599    0.0000000000000000    0.0000000000000000
    -0.0004039395096261    4.5891697046570874    0.0000000000000000
     0.0003007721534955   -0.0025253930033862    4.5821044539622973
 Li  Sn 
   3   1
Direct
  1.0581530314072236  0.7902353312978180  0.1028218839116747
  0.2271283230925889  1.2771957904944216  0.7627371388608418
 -1.1483881973774677  0.7738892245129626 -0.4239850399778717
 -0.2060443002165624  0.3064292881036318  0.2510409872854080
