Li Sn
 1.0000000000000000
     7.0458391286094333    0.0000000000000000    0.0000000000000000
     0.1712429932024412    6.8329903506041267    0.0000000000000000
    -0.1648668900153115   -0.0596823456326803    8.5947845893991097
 Li  Sn 
  11   9
Direct
  0.0863318221279286  0.2930835584485983  0.2830318648286780
  0.3704990515664058  0.9018334058840954  0.7251869839707387
  0.9130062169521808  0.7251975558711738  0.8114477799399895
  0.8958728159306248  0.7698725607110251  0.2595315064848582
  0.1311546358459698  0.3830646124801800  0.7627970006851854
  0.0069993545868121  1.0532999089812956  1.0252073346465504
  0.4941429440729819  0.5585237784185587  0.2563736688048941
  0.6431004146151055  0.8549210483032410  1.0173032224058838
  0.5558894660711600  0.5396533567301899  0.7420268095628791
  0.4264265420866720  0.2870105065273379  0.5201968570744365
  0.6131676338428866  0.8311895497969646  0.4654379304364051
  0.2610842199548901  0.6975662834143533  0.9737685957029524
  0.7415595190787522  0.0811072129546481  0.6985788609612801
  0.8961997036301640  0.4684978942124914  1.0365663222507486
  0.0934312747301964  0.9920515209482137  0.4850268793266269
  0.8258345823413104  0.4608180866969582  0.4995526877530373
  0.3365780419477163  0.9957143923748802  0.2049942582464802
  0.4626422848627953  0.2372235504200852  0.9505481966979638
  0.2226474235023425  0.5899867791262553  0.4901821951885859
  0.7151786330040069  0.1441518624157150  0.2868628313755693
