Li Sn
 1.0000000000000000
     3.4341011917340225    0.0000000000000000    0.0000000000000000
    -0.0005557525383479    4.8442970380065073    0.0000000000000000
     0.0039216402106233    0.0068122911373015    5.0373469059429121
 Li  Sn 
   2   2
Direct
 -1.4669596936064486  0.0551760109744813  0.8961478219016307
  2.7648994522159218  0.5968177257830202  0.2305337988574335
  1.2036491176249020  0.0802493349977886  1.3200964712912657
  1.2396891731492754  0.5791847703229119 -0.2321759162462534
