Ga Li Sn
 1.0000000000000000
     3.2488982196758167    0.0000000000000000    0.0000000000000000
    -0.0000000279850691    4.2046945001042202    0.0000000000000000
    -0.0000000213014807   -0.0000002392313627    5.9526027234564181
 Ga  Li  Sn 
   2   1   1
Direct
  1.8980263280929621 -0.0500982266856197  0.0841642650496224
 -1.7597820355166565  0.9474639092196591  0.4399537417788992
  0.4095105370565662  0.4772798189805924  0.1720246124484005
  0.8379630860623261  0.4114234599220052  0.6366344674065443
