Ga Li Sn
 1.0000000000000000
     4.5486779529802748    0.0000000000000000    0.0000000000000000
     0.0000000688978141    4.5486780504392321    0.0000000000000000
    -0.0000000966528550   -0.0000001001523822    4.3435836006453403
 Ga  Li  Sn 
   1   1   2
Direct
  0.2599987702381037  0.6420310235735477  0.4439171553798354
  0.9551461327544064  1.0622540068658695  0.3773073357486307
  0.2816489678396154  1.1697804193914454  0.9241238880356551
  0.7639055879265748  0.6283153510353887  0.9220813271575319
