Li Sn
 1.0000000000000000
     4.9664325875117106    0.0000000000000000    0.0000000000000000
     2.4816997185255065    4.3004310213302794    0.0000000000000000
     2.4830941898038708    1.4332518223175690    4.0556863900248885
 Li  Sn 
   1   2
Direct
  4.3169257326971788 -3.1807205816437798 -1.8861624055729880
  0.6185380789731978  0.9530610348590796  0.4940208066836709
  0.8626053425921661  1.2038404906904470  0.7455681348772546
