Ga Li
 1.0000000000000000
     5.2027554622179624    0.0000000000000000    0.0000000000000000
     3.3362414361015618    3.9922624133252902    0.0000000000000000
     3.3362414548176886    1.5598026851443649    3.6749386039840028
 Ga  Li 
   2   3
Direct
  0.2228141702436958  0.4259190097462784 -0.0305492381636462
  0.7755211433987996  1.0130865415796484  0.5878705981058635
  0.0547303204998491  1.2652920098049902 -0.3177723231160092
  0.6789306188565105  0.8051613725326769  0.3182476808616914
  0.4991439841660577  0.5819865672678078  0.2042758138549999
