Ga Li Sn
 1.0000000000000000
     6.7917845563898833    0.0000000000000000    0.0000000000000000
     4.4278948915724881    5.1499599928188031    0.0000000000000000
    -5.6098384808128374   -2.5749832331315616    2.8332871152883881
 Ga  Li  Sn 
   2   2   1
Direct
  0.3822626032019212  0.4517565599315644  0.0395475168226812
  0.7066441516624167  1.4163632440759442  1.7161740568686310
 -0.7298205292418449  0.8554284293514494 -0.3193245247427885
 -1.1298939086560746  1.1253693528849165 -0.7132420533518450
  0.9000140941421082  1.0050231029911134  0.8295588758701480
