Li Sn
 1.0000000000000000
     4.7043292706293443    0.0000000000000000    0.0000000000000000
     2.3546132674477973    4.0721557260276144    0.0000000000000000
     2.3559584769746147    1.3570566442290504    4.6270845166658523
 Li  Sn 
   4   1
Direct
  2.0659346772357594 -0.3294884538276154 -0.0716847824672344
  1.7467174152092280 -0.5135140024564109  0.5611085564010196
  0.6678015307513008 -0.6606466582571893  0.0774375664934223
  1.4488831362121621 -1.8950831761412488  0.5922709146280819
  1.2283317370394398 -0.1078021270801533  0.2740968344683045
