Ga Li Sn
 1.0000000000000000
     5.5976636252297984    0.0000000000000000    0.0000000000000000
     2.7988318126003406    4.8477188386688370    0.0000000000000000
     2.7988317569977124    1.6159062337504435    4.5704731515778585
 Ga  Li  Sn 
   4   1   1
Direct
  0.3098528486450572  1.1937048925122471  0.2099476426584657
  0.7229894655126382  0.5418864159852492  0.5252418396421086
  0.2985066430717927  0.4044451543803743  0.6029804201363034
  0.7143489589144908  0.4694017527299762  0.0385081480016399
  0.8492982916474251  0.9504561292350042  0.4581262136217254
  0.0249543030052410 -0.1019724854526742  0.9872239229029780
