Li Sn
 1.0000000000000000
     4.9039922963252138    0.0000000000000000    0.0000000000000000
     0.0005747280131047    7.9343352191505145    0.0000000000000000
     0.0069593234068057   -3.4077846688486888    9.9481599280911581
 Li  Sn 
  13   7
Direct
  0.9083269841013712  0.3019412827596243  0.6856924909905556
  0.9544739497878617  0.6932771790712792  0.7873730883046407
  0.9817449371233589  0.5750971016181120  0.5238256853428301
  0.4292571035707382  0.5240241388784577  0.8222117170294051
  0.9248735633754754  0.9198015091587559  0.1065802952316707
  0.4094160537079673  0.3217772678292952  0.5282391123290527
  1.0260477075259340  0.7498811964105752  0.3002740512297922
  0.4812892398585907  0.1795657853121523  0.2571060990219086
  0.9400839596599592  0.9723536922815600  0.5854573057257827
 -0.0072331348427704  0.3496025937571703  0.2497941401027350
  0.4979977313982732  0.7864421775617837  0.1617023934472337
  0.3602626642618026  0.8896605919725199  0.4372409052952476
  0.9483387797232259  0.1690025104246959  0.8967654178100773
  0.4305927855671093  0.7471495959665658  0.6896326841154994
  0.9452495245365659  0.5420026614326849 -0.0044648952733829
  0.5444583073735660  0.5764801605855265  0.3669071862102095
  0.3878171819300206  0.9568928209491434  0.9756740965497130
  0.4274565666863548  0.3543059563591399  1.0716462078444760
  0.9088625436634682  0.1233207639243026  0.4056406612902290
  0.4439649830555082  0.1631697773275762  0.7521450871490118
