Ga Li Sn
 1.0000000000000000
     3.4059034125959431    0.0000000000000000    0.0000000000000000
     0.0607945474718029    3.4053602270771113    0.0000000000000000
     0.0000018607087444    0.0000019593002561    7.7552412167355529
 Ga  Li  Sn 
   1   1   2
Direct
  0.0852558317090016  1.0664758842217117  0.5929929298840910
  0.6622452668943762  0.4491161319258942  0.7700360972462695
  1.2054443665150254  1.0567118498655317  1.0484894975641821
  0.5030741947816901  0.4837429575558220  0.3334544756381581
