Ga Li Sn
 1.0000000000000000
     4.2345716002558191    0.0000000000000000    0.0000000000000000
    -0.0000000022630996    3.0269780210625870    0.0000000000000000
     0.0000000212357458   -0.0312664750190421    5.9104748295516742
 Ga  Li  Sn 
   1   2   1
Direct
  0.5805707137104753  0.0282572505959325  0.5834465867926223
  0.4217975783464244  1.7183522823317199  0.0107481450378488
  0.0563469981027741 -2.2969549722704419 -0.2969825774742168
  0.0760483741839163  0.1507586902567986  0.3166333418940949
