Li Sn
 1.0000000000000000
     4.2880457695516343    0.0000000000000000    0.0000000000000000
     2.1499330929219087    4.6850353720703213    0.0000000000000000
     2.1510837201850870    0.3206421061897384    5.0731745803179704
 Li  Sn 
   3   2
Direct
  0.1807080247265445  0.7455366875371492 -0.2184225881953671
 -0.3354239380129116  1.4455337026167669  0.1838512255570854
 -0.2312293490046236  0.8753064639192171  0.3855819577014070
 -0.0577061161136939  0.3794183128812113  0.6235914158074253
  0.3155727390124251  0.0216379179900404  1.1371431425161265
