Ga Li Sn
 1.0000000000000000
     4.1769670559643766    0.0000000000000000    0.0000000000000000
    -0.0000004694492806    3.3344291626324329    0.0000000000000000
     0.0000004482156780    0.0179958820775752    6.4999778773683285
 Ga  Li  Sn 
   1   1   2
Direct
  0.4460372488559037  0.1286681828297518  0.2343968914714773
  0.4066022544602429  0.0041086946706035  0.6566889801492489
  0.9907977333347779 -0.5056841237518118  0.9238947963890116
 -0.0709322448259063  0.6852922101789696  0.4379889411915436
