Ga Li Sn
 1.0000000000000000
     4.3290399266012729    0.0000000000000000    0.0000000000000000
     0.0000000235261978    4.5559222961732662    0.0000000000000000
     0.0000000368530739    0.0000000376638360    4.5627998538851759
 Ga  Li  Sn 
   1   1   2
Direct
  0.5772078262762629  0.6033005095622028  0.0272659959322134
  0.5914429610001355  1.0850288495062084  0.6256377318200933
  1.0510092084011688  1.0598649827681641 -0.0042036413110795
  0.1243763118443407  0.6023421514151436  0.4869942947221169
