Ga Li Sn
 1.0000000000000000
     5.4617175654326493    0.0000000000000000    0.0000000000000000
     1.7188643865001707    5.1841935607101020    0.0000000000000000
    -3.5774540154368331   -2.6098770549893255    3.1969866920108951
 Ga  Li  Sn 
   1   1   2
Direct
  0.3382637377126672  0.7837532977221172  0.5372014303124023
  0.7779175164808811  0.2290170011897585  0.4582794906117560
  0.0592980410538270 -0.0596581566522933 -0.0914962109838946
  0.5379915898747066  0.4663359012970505  0.9854506469042258
