Li Sn
 1.0000000000000000
     4.3358073908040851    0.0000000000000000    0.0000000000000000
    -2.1369677923440369    6.7932713088803451    0.0000000000000000
    -0.0197534754761487   -2.6069685842800641   15.5441813662649597
 Li  Sn 
   9  11
Direct
  0.3502401432409143  0.2879411048459240  0.2681759599580361
  0.4330389668401290  0.5344413184307663  0.1006213864412463
  0.8777545192112494  0.7536356597595528  0.8186457497600419
 -0.0007058160040725  0.9213609398897745  0.1097824339294677
  0.1326834551722731  0.0596636585746904  0.9637817170172359
  0.1939652876321845  1.0444078540122255  0.4253743761109536
  0.3379497200805479  0.3780520411106270  0.5421546513087965
  0.1907252908132677  0.1151688432402328  0.6639308137000453
  1.4897995618073072  0.7137790813645394  0.3709006667389855
  0.8386672421672459  0.4601267539560027  0.9769208219649297
  0.2404685362680707  0.4182746605579014  0.8239162365516495
  0.5321092617771970  0.9446414142119750  0.2438779523296881
  0.5963573074929628  0.1812649300466677  0.0859473359359727
  0.5287381734859052  0.7443597439345641  0.6732543183973879
  0.5202632658757459  0.8075243431200336  0.9607445813491726
  0.8030341795818527  0.3590645239959031  0.3955274136650637
  0.9420398673977476  0.5888473374582328  0.2507325155059157
  0.5620128382412641  0.0843335079141765  0.8137483542016657
  0.8382317320902245  0.4209281464128709  0.6795536116677199
  0.6125725436287025  1.0499839219064022  0.5366233604708962
