Ga Li Sn
 1.0000000000000000
     4.7987606063724417    0.0000000000000000    0.0000000000000000
     2.3993803374593865    4.1558485298786110    0.0000000000000000
     2.3993802815549814    1.3852827927368350    3.9181716090882461
 Ga  Li  Sn 
   1   2   1
Direct
  0.7754483551994112  0.7871525976947944  0.0512628474236329
  1.1819015367198613  1.2066905480494303  0.6804417377460390
  0.9600174620441323  1.0372193033756398  0.3270161540877645
  0.5166741283983610  0.4725345597590920 -0.2346435235199248
