Li Sn
 1.0000000000000000
     8.0731860910566358    0.0000000000000000    0.0000000000000000
     3.7114669943515506    6.9843419135158991    0.0000000000000000
     3.6696175035175624    2.0990001390258781    6.6184183702901862
 Li  Sn 
  12   7
Direct
  0.3649693526194160  1.2332829216363939  0.5764635428720676
  1.5135124896400720 -0.9923656800450189  0.1620984259401483
  1.1596282816136170  0.0241294245444489 -0.4836078371747867
  0.4759885286586476 -0.3806630601482828  1.2983785246580604
  1.0556928975497375  0.3585345698181592  0.0700335105036091
  0.4542618086782911  0.3202290068475310  0.8446908326617397
  0.0370278034902214 -0.1915059532116601  0.3138208534018277
  0.9488829559077675  1.4845265535510750  0.6075694183160911
  0.7216462630909192  1.5837737395257256 -0.0863690720580701
  0.8144787389397746  0.0297312766458113  0.6151131872097134
  1.2572850990176765 -0.2471925431278299  0.9167685755459963
  0.8818984330853296 -0.3009208743826745  0.1269514504064900
  0.9280244053162688  0.1088344030675261 -0.1457286712309014
 -0.6551259661173977  0.9937333130074579  0.9435736065463108
  1.2453774916469085  0.4248088464370537  0.2337530233158046
  0.5825646556086610  0.8352997311763640  0.5379645413641611
 -0.2995373571389775  0.2025234905502447 -0.7516934255019667
 -0.1928037399358509  1.3915666309898043  1.4317904027053316
  1.0981750038316553 -0.3363183955268721  0.7163143832097879
