Li Sn
 1.0000000000000000
     4.7669161171935821    0.0000000000000000    0.0000000000000000
    -2.3886449564801704    4.1217682578096779    0.0000000000000000
    -0.0304640330618837   -0.0266703061071507    9.2969565878230966
 Li  Sn 
   5   4
Direct
  0.5006856428915787  0.7037085050889107  0.9031465751853182
  0.8115126040262510  0.4247975363731418  0.1229228296621469
  0.8378846863592401  0.3989086426094447  0.4355983828202623
  0.2302746702295354  1.2161178456236195  0.6704836408695261
  0.4539840369609952  0.7802511232791505  0.2624032699797196
  0.8243403395187794  0.4767117427311983  0.7639195909785904
  0.1375946650189442  1.0987216449144535  1.0133808436196405
  0.1395669839940165  1.0788165691391625  0.3395313024043679
  0.4661146820689537  0.7552635401158984  0.5502064501487041
