Li Sn
 1.0000000000000000
     4.0457387017804161    0.0000000000000000    0.0000000000000000
     0.0051450091161057    4.0462088266826139    0.0000000000000000
    -1.9916441155084808   -1.9785555873345231   10.8005115544345571
 Li  Sn 
   2   5
Direct
  0.7650528729604542  0.5989528141045036 -0.3856053587775251
 -0.2396368200728435  0.9695280965369235  0.3973485088077293
  0.6349349201847194 -0.9503344400836922  0.1749089066262077
  0.1767690188561938  0.4372451621221519  0.3821460996022542
  0.3687636716869998  0.1156364262558671  0.6261946103395023
  0.9547264872350508  0.3717496267967115  1.0061927724625006
  0.3176686148063187  0.7501698073649973  0.8593846444407185
