Li Sn
 1.0000000000000000
     5.2813068069114584    0.0000000000000000    0.0000000000000000
     0.0193393417496914    5.2794227455485689    0.0000000000000000
     0.0153946258227253    0.0128768327549660    5.2768630779463379
 Li  Sn 
   6   2
Direct
  0.8426542984057893  2.4657035575081285 -1.2054625185268912
  1.5072208935797515  0.9451989892157736  0.4148922922872466
 -1.5107580067971920  1.4341540210785952  1.3078963711575093
  1.0004650486866438 -0.3402504446992637  0.2442950155938249
 -1.0428149259135693 -0.0529351752377250  3.8068867199652812
  0.3747836476814346  1.3271987737815929 -0.2178527862175073
 -0.0022797713763818  0.1618743800210834  0.3094922719412986
  1.4499662571967646 -0.1740802826322564 -0.0751166082725593
