Li Sn
 1.0000000000000000
     5.5011633403655749    0.0000000000000000    0.0000000000000000
     3.8839380211306143    5.7594294138484328    0.0000000000000000
     3.6016865832905207    1.0834647167602223    6.7444312720769402
 Li  Sn 
   5   5
Direct
 -0.5903291989765156  0.3560621800867610  0.5493662384777069
  0.7412264335157095  0.1576222871769127  0.2354202530305111
  0.9253368213117644  0.6242828030019720 -0.0606732653722438
  0.0576930937363434  0.3115594158971199  0.4211304187635262
  0.3207514780173948  0.9678729791301046  0.7879571129592869
  0.7473173153525399  0.4434983755069265  0.7735586606065965
  0.4204628231405684  0.1586393135972645  0.0095586638406496
  0.2985623438257213  0.6782192558105234  0.1561134222578056
  0.6156181963492521  0.7927703308325453  0.3672600258008470
  0.8976936517209452  0.9202586951284605  0.6131370787128000
