Ga Li Sn
 1.0000000000000000
     3.5331445416043290    0.0000000000000000    0.0000000000000000
     0.0178261037101042    3.5331050566278761    0.0000000000000000
     0.0000003081429394    0.0000003195638647    6.4473129262316933
 Ga  Li  Sn 
   2   1   1
Direct
  0.0919470781503013  1.0084524686929706  0.0648007279302559
  1.0537139673541418 -0.0202319359090521  0.4967458742076227
  0.5936783317127077  0.5670528508351277  0.2776080490736921
  0.5004801564618019  0.5272909170641142  0.8153581923046563
