Ga Li Sn
 1.0000000000000000
     4.5541088249496253    0.0000000000000000    0.0000000000000000
     0.0000000599401089    4.5541086311370194    0.0000000000000000
     0.0000000861883832   -0.0000000745287042    4.3289226363704785
 Ga  Li  Sn 
   1   1   2
Direct
  0.3990072103365219  0.9557749235813057  0.5054046431174298
 -0.1365195310359200  0.3151120552246902  0.4971360371335143
  0.8773707290547327  0.9654939803621010  0.9768377697697190
  0.4089752178859335  0.5106814884065205  0.9794321051946233
