Li Sn
 1.0000000000000000
     4.6734805354222591    0.0000000000000000    0.0000000000000000
    -2.3369712598218606    4.0512132094222739    0.0000000000000000
     0.0023949787803795   -0.0009754202923625   23.2897776121685638
 Li  Sn 
  10  10
Direct
  0.4408261697669438  0.7553555266471256  0.8474820824109750
  0.8767724651650519  0.5032485288335093  0.2068720599216674
  1.2353152322354675  0.2291055671822262  0.1577244437154714
 -0.1029235585705327  0.4425808819208253  0.9380020352454644
  0.3782235912538946  0.3241593134257124  0.7316147559139400
  0.6470640117813030  0.8948933624515536  0.6953449310501231
  1.2001961604732445  1.1565600616846528  0.0162332523639326
  0.9149402897120921  0.4574963471348082  0.5372790753247615
  0.3367355429541814  0.0980314360780760  0.6189742325615482
  0.2691488387667389 -0.2678142378296459  0.3225158237979702
 -0.1231854219486136  0.3701729753055549  0.7957072303245237
  1.5953952591160176  0.8184859178342961 -0.0054782594733766
  0.7151024412831869  0.8430555438949821  0.5837654846860215
 -0.0243548526440020 -0.4905643060347414  0.6602064391221485
  0.8920218904636933  1.2614093121295489  0.4009646956783059
  0.8329283393006018  0.4504245726914858  0.0739132509099528
  0.9813761815550562  0.0595619053001713  0.2814661150517578
  0.2478129192709586  1.1443217154657310  0.8907655315559413
  0.4734215297162498  0.7344966989366434  0.2038283862008226
  0.3713367982719007  0.2109426292147375  0.4730002230622478
