Li Sn
 1.0000000000000000
     4.7812699781382584    0.0000000000000000    0.0000000000000000
     0.0002818542469301    5.9761510630303416    0.0000000000000000
     0.0025286757616287   -2.9864347188959237    5.1780391085771331
 Li  Sn 
   6   2
Direct
  0.8896089856967944  1.7470439792192471  0.5847652595488320
  0.9229212427569503  1.2075691062926412  0.0643313147064733
  0.8872043676882837  1.6320876652665586  1.0296252843133455
  0.4780392997834945  1.0231073906965424  0.1895473563704165
  0.4720480499221797  0.0531587278733383  0.6502318143892788
  0.3523758612885686 -0.4308506925061146  0.7483896815641582
  0.9283176429131106  0.2109494588494417  0.5509073690493793
  0.5036093799744358  0.4498129936155695  0.1195256363283784
