Ga Li Sn
 1.0000000000000000
     5.3140120365854706    0.0000000000000000    0.0000000000000000
     1.8471551656490413    4.9826440545807671    0.0000000000000000
    -3.5805834928291342   -2.4913220169126231    3.0350386156394920
 Ga  Li  Sn 
   2   1   1
Direct
  0.9304429695698865  1.2361411913390790  1.2829137835537994
  0.7067940537095501  0.4356528530290483  0.7570434721872165
  0.5108845901655450  0.7783643894621205  1.3856656823324638
  0.2107487650859708  0.9733961537612577  0.8170986746764656
