Li Sn
 1.0000000000000000
     4.6575508207379750    0.0000000000000000    0.0000000000000000
    -2.3246086516574325    4.0356245592131472    0.0000000000000000
     0.0006520526127272   -0.0019634956371354   10.5060775627036236
 Li  Sn 
   7   3
Direct
  0.9006121590436728 -0.0104272149788278  0.8228803088684687
  0.1572305402007424  0.7238289358578420  0.5967339530094341
  0.6362177550791075  1.1135840513221196  0.4664479419634730
  1.4255759182422147  0.9343376255831932  0.1754795903644507
  0.7810997416782478  0.6752052794111821  0.2236131078376625
  0.6733629244513293  0.3886271401934441 -0.0226983656454393
  0.1967998967898168  0.5772784957347402 -0.1443917893406821
 -0.4729821614492807  0.3242866960648871  0.7038487779755063
  0.2949213072832821  0.4191406227322293  0.3927268444636519
  1.0714865295532621  0.2596674950634019  0.1187819115156213
