Ga Li Sn
 1.0000000000000000
     3.5331445416043290    0.0000000000000000    0.0000000000000000
     0.0178261037101042    3.5331050566278761    0.0000000000000000
     0.0000003081429394    0.0000003195638647    6.4473129262316933
 Ga  Li  Sn 
   2   1   1
Direct
 -0.0926612148525048  1.0302293122890283  0.1007034098072864
  1.0814670283548167 -0.0206993807135039  0.5103403322116576
  0.5716606424271818  0.4408924166579965  0.3547543825860704
  0.6141392856881914  0.5302944896642288  0.7996297620576309
