Li Sn
 1.0000000000000000
     5.0866976836377473    0.0000000000000000    0.0000000000000000
    -0.0654910400073277    6.2306468206264807    0.0000000000000000
    -0.0231194118344503   -0.0289665261847444    9.8775015761271536
 Li  Sn 
  10   6
Direct
 -0.0082036334076746  0.2751407112223301  1.0395412582066437
 -0.0665608026888066  0.8666775550980395  1.0441674870778734
  0.4013035201836619  0.3269507229957272  0.2885291857855524
  0.5505641059592543  0.4895519887530507  0.5509777502192506
  0.0172217170048091  0.2352951614133304  0.5177688595454537
  0.4651178466020263  0.7744506058966099  0.2288408389570549
  0.5093285613526417  0.4765957818504463  1.0420964334723166
  0.0002953552669141  0.7504354176442951  0.5149794171397363
  1.7204942544688167  0.1553573237165356  0.7714077233997132
  1.1694778626684719  0.9280294279899712  0.7446113089577985
  1.1916918111045152  0.4125274667258368  0.7813480744281336
  1.6698507749571458  0.6814248863563822  0.8363532982376752
  0.4632156251019615  0.0061455593508081  1.0103187859402321
 -0.1099423727323291  0.0205903099529780  0.2981980202432425
 -0.0615592572155223  0.5289257094185986  0.3013891720907967
  0.4872029786076534  0.0060946765368767  0.5080046354430592
