Ga Li Sn
 1.0000000000000000
     4.9349037275313625    0.0000000000000000    0.0000000000000000
    -2.4674479927427089    4.2737526927182685    0.0000000000000000
    -0.0000033346203099   -0.0000081123482084    3.0656798275258406
 Ga  Li  Sn 
   1   1   1
Direct
 -0.0440151157063899  0.3966032187541513  0.5903108255575720
  0.2265422478234170  1.1685528162070735  3.0702498112990320
  0.6653302574896287  0.7470391932230735  0.6918345834908066
