Li Sn
 1.0000000000000000
     4.7933528035243524    0.0000000000000000    0.0000000000000000
     0.0044582296443725    5.8602796311937766    0.0000000000000000
    -2.3892643141726988   -1.6692780940074594    6.8086566058313611
 Li  Sn 
   8   2
Direct
  0.3006726037620035  0.8648410461172514  0.1803311482336704
  1.1363521092587467  0.3016548105991842  0.7570529208760857
 -0.2724838831641992  0.5632722345826493  1.0154849120718972
  0.3026120559611383  1.3255992605531675  1.1404012654651399
 -0.0039565016242493  0.5976548659534842  0.4383970628668944
  0.5833821826483140  0.0206987510778847  0.5780424539852330
  0.5627678895325398  0.5018347874748645  0.6049211381880090
  0.7203916051618789  0.0944667505099478  0.9605517400134861
 -0.0822783385398487  0.1576513612097154  0.3582424414874530
  1.0843772307411768  0.7757452536088475  0.8245911936317354
