Li Sn
 1.0000000000000000
     6.6544111646004183    0.0000000000000000    0.0000000000000000
     0.0102165080735814    6.6841937302240551    0.0000000000000000
    -3.3322649393197206   -3.3458300938630652    6.3296028375340834
 Li  Sn 
   4   8
Direct
 -0.0770734786116491  1.7647111132708093  0.9260943289144035
  1.1188429757131131 -0.0178689751941243  0.3912979091240544
  0.9345061186391856  0.3351843084053410 -0.9282292751984744
 -1.4430863195220582  0.4196385093759026  0.0990800784539385
  1.3189519530719862  1.2314680336691988  0.2546176657027757
  1.2813978600479123  1.6702552207346613  1.2454595633872376
  0.5854270985860057 -0.1554509317528519  0.1059387725330915
  1.2686436672510049  1.6726877977282888  1.6530059076048820
  0.5568640071062915  0.3479421333817531  0.7212599403477602
 -0.1971454858355625  0.3262123331248358  0.4562751549829241
 -0.2923656430198098 -0.1600796803182976  0.5819046950662478
 -0.8189815123770948 -0.8557022926509603 -1.2275150583651937
