Li Sn
 1.0000000000000000
     3.5208498475990089    0.0000000000000000    0.0000000000000000
    -0.0000865165054398    4.5827381717653672    0.0000000000000000
     0.0013027370884937   -0.0015102739648175    4.5731492461556691
 Li  Sn 
   3   1
Direct
 -1.9306096015426695  0.9234339085302476 -0.5120996419881563
  0.5095641462796143  0.4357292085144100  1.4702292567932995
 -2.5542512092695810  0.8076660333438409  0.0160948094664907
 -0.0343554237650804  0.3200185785855744  0.9637249943159640
