Ga Li Sn
 1.0000000000000000
     9.7033021703350624    0.0000000000000000    0.0000000000000000
     9.1167531263577057    3.3224761106166745    0.0000000000000000
     9.1167540062346148    1.6094652629892019    2.9066266831872514
 Ga  Li  Sn 
   1   1   2
Direct
  0.6294709675456746  1.8803754669822668 -0.2192068425401260
  0.4895784035636063 -0.2814555394130833  0.6670343502461649
  0.1419739682569702 -0.4409639813021870  0.3522287105420794
  0.5922414945015849  1.3808088470898652 -0.3713273304993891
