Li Sn
 1.0000000000000000
     6.6852469069370306    0.0000000000000000    0.0000000000000000
     0.0042607537235940    6.7137279767351448    0.0000000000000000
    -3.3414988693310130   -3.3513767961676408    6.2247184139575245
 Li  Sn 
   4   8
Direct
 -0.3658694253477237  0.5303346470945364  0.0974232658457960
  1.0159220143146226  0.3849438313372539  0.3729850715319709
  0.2598932915791297  0.1238561315354178  1.1050388449696678
  0.1408089317775488  0.6783141826937273  0.8844303215018610
  0.8234852090345371  0.1578355787767822 -0.0727288883023724
  0.3352479908967213  0.8507269070905549  0.6648504673374163
  0.5961926443008096  1.4891418394567770  0.7048070705980687
  0.2991168113804561  0.5742902889869065  0.2250307287126097
  0.1029196051042996  0.2357142789293484  0.7276317300955829
  1.0032542518722478 -0.1564147520479363  0.1582406138467727
 -0.2184338966666760  0.6825465757561487  0.5231126629011937
  0.6488931520327798  0.0283204295211089  0.3459295822552619
