Ga Li Sn
 1.0000000000000000
     5.4617175654326493    0.0000000000000000    0.0000000000000000
     1.7188643865001707    5.1841935607101020    0.0000000000000000
    -3.5774540154368331   -2.6098770549893255    3.1969866920108951
 Ga  Li  Sn 
   1   1   2
Direct
  0.2302878405591653  0.6802512744855780  0.4099628407698444
  0.8053853738716126  0.3533564834011249  0.5356267432831643
  0.1277604817535426  0.0155738373733939 -0.0346359845691656
  0.5612510270781688  0.4297095374208990  0.9768011135832858
