Li Sn
 1.0000000000000000
     4.4637660989459240    0.0000000000000000    0.0000000000000000
    -0.0064445654535607    5.8448236518970518    0.0000000000000000
     0.0001765178194603   -0.0008743261320271    8.6778993148158801
 Li  Sn 
   8   4
Direct
  0.5970876083458658  0.4307849464577060  0.4002218529426788
  0.5040018146029132  0.5488950876900791  1.1072977841194134
  1.0933812657243900 -0.1265512464975002  0.9498716392433828
  0.6054536638417070  1.0529925826840687  0.0494814693698487
  1.0084887363493329  0.3216821024366036  0.5874830010637554
  0.5562506824031207  0.9834539360902299  0.3728989417226106
  1.0415795307248448  0.3737136414725616 -0.0588656705735340
  1.0739819966805533 -0.1861347442501364  0.6394157004762433
  0.4989052948716666  0.1242183722692465  0.7472237692972947
  0.5280099688271217  0.5952348226322128  0.7897298480655316
  1.0322790488838696  0.1954579150267852  0.2398476566852698
  1.0792360118805324  0.6974169519863902  0.2749165117009465
