Ga Li Sn
 1.0000000000000000
     4.3055954228993700    0.0000000000000000    0.0000000000000000
     0.0000000497270422    4.3055953945918120    0.0000000000000000
    -0.0000000036442416    0.0000000251397829    4.3197132361992949
 Ga  Li  Sn 
   2   1   1
Direct
  0.9230835024261290 -0.1774207233318682 -0.0172166778347383
  0.4814450760680110  0.2879435251757781  1.0146728745115361
  0.3843873041129747 -0.2803675445354083  0.5814971777421628
 -0.1261870609511317  0.3448367913404415  0.5229510969673858
