Li Sn
 1.0000000000000000
     4.6537955097396662    0.0000000000000000    0.0000000000000000
     2.3266606638263196    4.0300681446098636    0.0000000000000000
     2.3280169292184332    1.3442055114711924    3.7992463099366414
 Li  Sn 
   3   1
Direct
  0.3750593835358107  0.0833466733810854 -0.0325260193218323
  0.5536358018332159  0.3440079427372009  0.3334744220076741
  1.0130107970354563 -0.0833893419768244  0.6750109399571200
  0.8471987104098269  0.6415377575910323  0.4223286692692937
