Ga Li Sn
 1.0000000000000000
     5.3165760164578293    0.0000000000000000    0.0000000000000000
    -2.2500979889431876    4.8169533361060060    0.0000000000000000
    -0.0000000564524321   -0.0000001221207502    3.2253933011155849
 Ga  Li  Sn 
   2   1   1
Direct
  1.5617852962138801 -0.1777953284048727  1.0579959582972389
 -0.0288294153423059  0.4163772727053229  0.1186462993454679
  1.0086038088646609  0.8918175055205805 -3.0922338885337588
 -0.5629491387747877  0.3005443487782685  0.5048243194615749
