Ga Li Sn
 1.0000000000000000
     3.1592427816830964    0.0000000000000000    0.0000000000000000
     0.0000000246630692    5.0135085664665260    0.0000000000000000
     0.0000000186821726    1.8503030630127590    5.1575110711660885
 Ga  Li  Sn 
   2   1   1
Direct
 -1.4239933526887913  0.0601410023796543  0.6986597250200490
  0.0826118932608301  0.4857828535848567 -0.3092352069199785
  2.1493871009413863  0.0839661089686193  0.3077028475474402
 -0.3036757210131724  0.5815705897974560  0.1322305493070441
