Ga Li Sn
 1.0000000000000000
     3.3176989818322089    0.0000000000000000    0.0000000000000000
    -0.0000000594527849    5.2995138583367627    0.0000000000000000
    -0.0000001839069250    2.0655870550862137    5.2596456415426438
 Ga  Li  Sn 
   1   1   2
Direct
  0.3196895333324498  0.7170093159702540 -0.0835530897997239
 -0.4382203663726528  0.0434129149874408  0.4984036000111298
 -0.4807160117352965  1.1492080612765725  0.0230418900834271
  1.2739753169171082 -0.4557450215798844  0.4482638777598260
