Ga Li Sn
 1.0000000000000000
     3.2783862604695311    0.0000000000000000    0.0000000000000000
     0.0000000075976004    3.2783861865007085    0.0000000000000000
     0.0000000313647391    0.0000000144084393    8.4005121208842777
 Ga  Li  Sn 
   1   1   2
Direct
  0.5800877351956967  0.5004125768486610  0.2009346371414555
 -0.2481365017054800  0.6462942377532779  0.6759550679360764
  0.0597315082712967  0.1407872164637159  0.9231968403284122
 -0.0246331591046630  0.0512496389080857  0.4367758123388490
