Li Sn
 1.0000000000000000
     4.5020808808817439    0.0000000000000000    0.0000000000000000
     0.0031922339060603    5.8383559474236675    0.0000000000000000
     0.0055423066065053    0.0067306186647223    8.6826147172289048
 Li  Sn 
   8   4
Direct
  0.8855948933094682  0.7752106166784080  0.0956315146372322
  0.8550664033498274  0.7849430629951006  0.4631663281144828
  0.4089243375370379 -0.0114320825422984 -0.0553147192555395
  0.4104669494343036 -0.0942552952109765  0.6271483319770064
  0.2712025808764499  0.0550361892658086  0.2955750889044271
  0.7951895285455884  1.2906242443905225  0.4536481959197886
  0.8051917257203923  0.1979573547944513  0.8487578011353111
  0.2863262708993922 -0.4872814964289875 -0.0435414822022319
  0.8242523728935252  0.2635519515589221  0.1485680890540435
  0.2204645124808182  0.3928592006823753  0.6609411396264158
  0.8140091159020552  0.6900467952804883  0.8255744004513611
  0.3091583341304261 -0.4545948033815835  0.3497797206035041
