Li Sn
 1.0000000000000000
     4.4107584212543030    0.0000000000000000    0.0000000000000000
     0.0051432418459346    7.0032966663089615    0.0000000000000000
     2.1811704940181689    2.8632609039059216   10.1531243889973020
 Li  Sn 
   8   7
Direct
  1.0485294903722164  0.8658388033782074  0.9200802694116162
  0.7336354420151153  0.4047747216104145  0.3381826217856088
  0.1737773189174819  0.6926157439285787  0.3902882775871508
  0.8014651097710631  0.0141108868333527  0.4912916363923535
  0.3419759134384527  0.0834486932498114  0.9974075725857873
  0.4314094473411700  0.5987344194523909  0.8386358107118227
  0.1387699804162560  0.1908226212052807  0.5790457202077965
  0.9814337428238570  0.3462254136069922  0.7959055434420638
  0.6745294118336823  0.5163800481655083  0.5915886185852819
  1.0049688780873076  0.3538610060892654  1.0598352881323385
  0.8709596390110380 -0.1381500431991464  0.2096679343932830
  0.4415612310976873  0.6111051968841488  0.1047848255803541
  0.5597499509812347  0.0841832814485613  0.7549240570202261
  0.4269720780680366  0.1677031851976894  0.2564713839909292
  0.1589347218240363  0.7533443801059924  0.6584425338737867
