Ga Li Sn
 1.0000000000000000
     4.1769670559643766    0.0000000000000000    0.0000000000000000
    -0.0000004694492806    3.3344291626324329    0.0000000000000000
     0.0000004482156780    0.0179958820775752    6.4999778773683285
 Ga  Li  Sn 
   1   1   2
Direct
  0.4486968890120578  0.1420203591074850  0.2030892161163589
  0.4326354444976359  0.1108978359328313  0.7170964226020266
  0.9129841188028571 -0.4296691581051758  0.9226110791551071
  0.0054439209732149  0.5990777878756012  0.4556768779483563
