Li Sn
 1.0000000000000000
     4.7973720778140310    0.0000000000000000    0.0000000000000000
    -0.0000251222414037    5.9587259176797565    0.0000000000000000
     0.0017774158129466   -2.9865614573967809    5.1551081262064802
 Li  Sn 
   6   2
Direct
  0.0858901033990283  0.5025951777683368  1.2331306391025181
  0.1860418271550727  0.9572781110926222  0.6640733659005170
  0.6635581205577890  0.2632526871660093 -0.6803356215003334
  0.7469992759306826  0.3547798886548111 -0.1137310730790788
  0.7987071818493061  0.7577533194423005 -0.2057423581867728
  0.1703959944869119  0.0035854736620072  0.2323845640238672
  0.6466524431543754  0.8159412894356192  0.3812751724446057
  0.2329187765031331  0.4762567984717436  0.7201390534784091
