Li Sn
 1.0000000000000000
     4.2880457695516343    0.0000000000000000    0.0000000000000000
     2.1499330929219087    4.6850353720703213    0.0000000000000000
     2.1510837201850870    0.3206421061897384    5.0731745803179704
 Li  Sn 
   3   2
Direct
  0.1860205747090605  0.5819848675314647 -0.1805752441806431
 -1.3933770068940958  2.0147027878086652  0.6276497188294067
 -0.3228964213148396  1.3786858551241132  0.0693228093118283
 -0.0696359526950181  0.4542951208195156  0.5153164367250790
  0.3831637887279369 -0.0999276727742421  1.2263808831527130
