Li Sn
 1.0000000000000000
     4.7958384599761441    0.0000000000000000    0.0000000000000000
    -0.0042809736003851    4.7949848403083344    0.0000000000000000
     0.0010976630453787   -2.3951195392534883    4.6962810445193659
 Li  Sn 
   5   1
Direct
  0.8914335689319732  1.1500984202931659 -1.2351304842559947
  0.3391836759008808  0.3298501423774929  0.0281605879614207
  0.4352963257775689  0.0874532697376726  0.4098206472684908
  0.9733971384941649  0.7792568006379583 -0.9054492916836945
  0.9105313769366858  1.4968948853105337 -0.5620888393583402
  0.4867288136027743 -0.2965801008075615  0.7751527840853031
