Ga Li Sn
 1.0000000000000000
     3.6305121407769114    0.0000000000000000    0.0000000000000000
    -0.0000000744788525    3.6305122614548520    0.0000000000000000
     0.0000000497582606   -0.0000005665240904    6.1964616959399113
 Ga  Li  Sn 
   2   1   1
Direct
  0.1218514420600841  1.1816077160035086 -0.1735360173566267
  0.6701975866731796  0.6986895334062507  0.0178524669854831
  0.1584580490854075  0.1933425944041868  0.2897100526268605
  0.4623687694215403  0.7359197671541426  0.5449378024150724
