Ga Li Sn
 1.0000000000000000
     3.3176989818322089    0.0000000000000000    0.0000000000000000
    -0.0000000594527849    5.2995138583367627    0.0000000000000000
    -0.0000001839069250    2.0655870550862137    5.2596456415426438
 Ga  Li  Sn 
   1   1   2
Direct
  0.0278678533676422  0.5871407099899093 -0.0208373901025025
 -0.9952774014950190  0.1036124097651735  0.4957997317456745
 -0.3227853736681158  1.0856069647494548 -0.0097343857865484
  1.3221781613311983 -0.3197658973405118  0.4448170693320977
