Li Sn
 1.0000000000000000
     4.2469086297304441    0.0000000000000000    0.0000000000000000
     0.0013208590165571    4.2472727909675445    0.0000000000000000
    -2.1249457495995658   -2.1239553852971391    3.9543947137384854
 Li  Sn 
   3   1
Direct
  0.0546304044647369 -0.0000420668207337 -0.1092461004239065
  0.3888071873250398 -0.0319403761330195  0.5708780567460897
  0.7463971119051863  0.6508447577901366  0.1561751190085204
  0.7063991504891450  0.3839157317397755  0.5011936887662969
