Li Sn
 1.0000000000000000
     6.0794110648882045    0.0000000000000000    0.0000000000000000
    -0.0329722836464541    6.0650975681395503    0.0000000000000000
    -0.0456205654775208   -0.0458386217907354    8.8581575952345908
 Li  Sn 
   9   7
Direct
  0.7316531589143082  0.9190799168255960  0.2224285794909003
  0.2205839780304125  0.4242777023007296  0.2009527598489728
  0.7560331932669430  0.4568824330805720  0.1810804541523447
  0.2699822271559839  0.8489224883335396  0.6919788435243845
  0.3927931759261416  0.0939183391374518  0.9192666831243028
  0.0009251576727023  0.2215740815492401  0.4649566736235510
  0.5431047733990522  0.6736636076339283  0.4715132335889290
 -0.0050584161747188  0.7269036695381924  0.9879409281681067
  0.7028170081321554  0.4194548081534365  0.7096986092838800
  0.2249803645919277  0.9083656885204348  0.2134725367190314
  0.4706147419467956  0.6225229642994689  0.9497123082631606
  0.5417568621713479  0.1999847075712450  0.4438856301797478
 -0.0262156312259518  0.2057257563860865  0.9924491207439857
 -0.0202309212342446  0.7311319422192524  0.4972778236814688
  0.7095288560141799  0.9333159200752228  0.7173263818964682
  0.2537709514680913  0.4286654172549386  0.6993221595716174
