Li Sn
 1.0000000000000000
     3.4886779145051414    0.0000000000000000    0.0000000000000000
    -0.0140885093712143    4.5608569710815479    0.0000000000000000
    -0.0147805078504234   -0.0153752057486622    4.5639793854850836
 Li  Sn 
   3   1
Direct
 -0.0086627261811552  0.5301951617713868  0.4735816313482694
  1.5149055786597563  1.5934707161738215  0.9590222740587315
 -1.1539239938028161  0.0278015446297173  2.0260905222196253
  0.3619715448092505  0.9842560114366414  0.4693357366876141
