Ga Li Sn
 1.0000000000000000
     3.3355670148417329    0.0000000000000000    0.0000000000000000
    -0.0000000207475048    4.3058059470131198    0.0000000000000000
     0.0000002211703046    0.0000000722881467    6.3450937906424842
 Ga  Li  Sn 
   1   1   2
Direct
  0.4896766591827781 -0.2484846769568577  0.5876833391925452
  0.8945697252446312  0.1423732952675557  0.7561920145514363
  0.4820121878746184 -0.2279510611295792  1.0281200107881796
  0.8817546621574240  0.2768934492392713  0.2949607609940915
