Li Sn
 1.0000000000000000
     3.4291489304575968    0.0000000000000000    0.0000000000000000
     0.0034369957980509    4.8103720082541752    0.0000000000000000
    -0.0141627065405794   -0.0091790656281964    5.0272105163272682
 Li  Sn 
   2   2
Direct
  0.6196284977841809 -0.1742623581166757  0.9735471871988395
  2.7754923307824435  0.3073139052128819  1.2365851226329097
  2.1193859974953884  1.3359194913612511  0.7784293767067076
 -0.8939396101272391 -0.1775237775677904  0.3875817859474752
