Li Sn
 1.0000000000000000
     4.2469086297304441    0.0000000000000000    0.0000000000000000
     0.0013208590165571    4.2472727909675445    0.0000000000000000
    -2.1249457495995658   -2.1239553852971391    3.9543947137384854
 Li  Sn 
   3   1
Direct
 -0.0195036320884346  0.1642867135602544 -0.0508062426744523
  0.2303558454206752 -0.1021358551656097  0.5196427572025887
  0.3802419442615039  0.6024477141689044 -0.0257236607694145
  0.7436834857978747  0.3836004237757261  0.5142144498080233
