Li Sn
 1.0000000000000000
     3.2868180551096144    0.0000000000000000    0.0000000000000000
    -0.0023503498960671    4.6288949821803840    0.0000000000000000
    -0.0007327620190335   -0.0041544575000164    5.6529701704573316
 Li  Sn 
   2   2
Direct
 -1.6296563534703390  0.7735718265204965  0.4812308019455937
 -3.2371642292508591  0.3134157736761174  0.7965055051990314
  0.2242174922053786  0.8276153653885603  1.0519751418037491
  0.8180333551277162  1.3440328344058279  0.3200572673360393
