Li Sn
 1.0000000000000000
     6.0959836635352636    0.0000000000000000    0.0000000000000000
     0.2682971066297575    6.0872551890190953    0.0000000000000000
     0.0019637668776543    0.0007161476118143    8.6173798886982151
 Li  Sn 
  10   6
Direct
  0.8201333331881738  0.5875218448288189  0.3363098618967277
  0.0314505379106720  0.9254338960893700  0.0884801425424621
  0.7545249895803010  0.6681606610744192  0.8050927265578594
  0.5355704418253435  0.3990469531265170  0.5298306531318782
  0.5600729696304070  0.4690983204048095  0.0375213453152385
  0.4978754599395774  0.8844779536353718  0.1348365590971042
  0.0272917455204258  0.4157754729519599  0.6264317371069315
  0.0748895196039948  0.9015499729968438  0.6135879254856600
  0.3328327274074995  0.1677675905036367  0.8522847379199927
  0.2192778591378367  0.1781385985506693  0.3503977230540826
  0.8036494401391394  0.1365507696282496  0.8386970264664723
  0.2691964888550658  0.6150057012773621  0.3251970398244221
  0.0090027584290042  0.4162630940799473  0.0606942512976865
  0.4988480390929355  0.9177426651957913  0.5659715591981214
  0.7370226647215711  0.1413419069078320  0.2971585608601462
  0.2715580181137079  0.6958832629024504  0.8633532157202003
