Li Sn
 1.0000000000000000
     4.7043292706293443    0.0000000000000000    0.0000000000000000
     2.3546132674477973    4.0721557260276144    0.0000000000000000
     2.3559584769746147    1.3570566442290504    4.6270845166658523
 Li  Sn 
   4   1
Direct
  1.6167198207121454  0.2986054882143584 -0.0426797666448128
  1.8993215759272164 -0.4672834671986487  0.3514106860071440
  0.4987278599561759 -0.9098373965833909  0.4888024190092710
  1.0563754559448715 -1.4364205672002073  0.8308388549006699
  1.2790156752273203 -0.1584242949497900  0.2461353366083804
