Ga Li Sn
 1.0000000000000000
     3.2488982196758167    0.0000000000000000    0.0000000000000000
    -0.0000000279850691    4.2046945001042202    0.0000000000000000
    -0.0000000213014807   -0.0000002392313627    5.9526027234564181
 Ga  Li  Sn 
   2   1   1
Direct
  0.6440145286373535 -0.1189963018687248 -0.0023408116983397
 -0.4710019863911737  0.9708562277353160  0.4340295644307438
  0.1016301209101045  0.3133118759011004  0.1527615304273127
  0.8219487379760257  0.4498016009508086  0.6949731304294405
