Ga Li Sn
 1.0000000000000000
     5.1574191380939087    0.0000000000000000    0.0000000000000000
     1.6278834838908598    4.8937683101472356    0.0000000000000000
    -3.3855826284468047   -2.4566849023141919    3.0168694564156224
 Ga  Li  Sn 
   1   2   1
Direct
  0.5201109411830441  0.7412184470049330  0.6018356786233895
  0.1775483402109004 -0.1293803591224185 -0.0401971263274397
  0.9936260236809248  0.1371362800240401  0.4882978534516177
  0.7075821428749326  0.4387821029768821  0.0583945351579257
