Li Sn
 1.0000000000000000
     3.6522034465196147    0.0000000000000000    0.0000000000000000
     0.0038018258263141    3.6604402872330635    0.0000000000000000
    -1.8113206014597500   -1.8127443714400844    7.4938377068133075
 Li  Sn 
   3   2
Direct
  0.9591579954433921 -0.1475993378355413 -0.0306655492431866
  0.7634121330073441  0.2798097944061099  0.5016230325474339
  1.4554422936409992  0.5205666655235863  1.1484615165081282
  0.3844052499166747  0.2826272161041389  0.7151887008848052
  1.0909054176571422  0.1209094935872254  0.2856154098503376
