Li Sn
 1.0000000000000000
     3.5369385711564783    0.0000000000000000    0.0000000000000000
    -0.0080412000990398    4.5422720907047980    0.0000000000000000
    -0.0045943102604929   -0.0046251801972806    4.5397773664302150
 Li  Sn 
   3   1
Direct
 -0.3576896049143470 -0.0079500001784846  1.0213490838272534
  0.6453776595296691  0.4637263002661831  0.5824781278079311
  0.1452846082581554 -0.4769367401293511  1.0863439150619465
  0.1127766953791893  0.0062523092023156  0.5549269800956366
