Ga Li Sn
 1.0000000000000000
     6.4835295192034081    0.0000000000000000    0.0000000000000000
     4.8969287583158909    4.2492641425018656    0.0000000000000000
    -5.6902290728843399   -2.1246318971072822    2.2679038133633105
 Ga  Li  Sn 
   1   1   1
Direct
  0.3402130093168570  0.5145172648408374  1.5974854444657132
 -4.0600471731461507  1.3334672934204312 -3.3342671023332415
  0.3891334431376053  1.0274567141201472  0.5424470230501508
