Li Sn
 1.0000000000000000
     4.3467177546546960    0.0000000000000000    0.0000000000000000
    -0.0009868399056433    4.3699578083162791    0.0000000000000000
    -2.1636201357741101   -2.1720106584254717   12.8147104845552633
 Li  Sn 
   7   5
Direct
  1.2171515325531572  0.3129626219036071  0.8561954635996754
  0.2616410873908747  0.4367900678661873  0.1970485111102325
  0.7536669710020574  0.0100343755357628  0.1997660303948834
  0.5303049602055507  0.2235539892260607  0.6589210180399687
  1.1929093746122010  0.9085039432938602  0.0243744368339545
  0.3292074251695820  0.1452234701430870  0.3934708324983950
  0.4767568036110679  0.6990150726162743  0.5132106825612333
  0.8521135666590601  0.5825930540700111  0.3396168323314309
  0.6846349119184030  0.7151651913293917  0.8354444565306038
  0.7717029926479981  0.4168176880152724  0.0141013666038508
  0.8794209208386629  0.2077035496882019  0.5032313656183719
  1.1161445059072106  0.7803034303185007  0.6804331758333287
