Li Sn
 1.0000000000000000
     4.3467177546546960    0.0000000000000000    0.0000000000000000
    -0.0009868399056433    4.3699578083162791    0.0000000000000000
    -2.1636201357741101   -2.1720106584254717   12.8147104845552633
 Li  Sn 
   7   5
Direct
  1.1905384959534733  0.4154314263409954  0.8375303197999503
  0.4058209073870410  0.5741854678595807  0.1603765305843999
  0.8690363756105396 -0.0249482625989450  0.1562565930027550
  0.6291461384367897  0.3475951864785289  0.7050594294083987
  1.2906156415085759  0.9798346829149897  0.0105311822003022
  0.3594190330761236  0.0351472335427467  0.3424236266669138
  0.4650364432064297  0.6369677206072446  0.5018197805722844
  0.8828012268684090  0.4382135218074571  0.3076053047851567
  0.5994636283556543  0.9084457304552224  0.8526680218699609
  0.7607033510171191  0.4646945247732757  0.0211440567135789
  0.9384488215075321  0.1315301221316718  0.5251037137353437
  1.0992017289473948  0.7271468683861214  0.6738851455444397
