Ga Li Sn
 1.0000000000000000
     5.5634414803520800    0.0000000000000000    0.0000000000000000
     2.0265076873662067    5.1812299818057967    0.0000000000000000
    -3.7672746663394316   -2.6311917443831083    3.1362952425042661
 Ga  Li  Sn 
   1   1   2
Direct
  0.4661614113955585  0.2581881446115551 -0.0866258473091236
  0.8857460848202655  0.0691540076599808  0.6947824257943839
  0.9616754138794120  0.7663216574345662  0.9539096846938045
  0.2479981975097059  0.4567178130022632  0.4425756232604183
