Ga Li Sn
 1.0000000000000000
     5.5976636252297984    0.0000000000000000    0.0000000000000000
     2.7988318126003406    4.8477188386688370    0.0000000000000000
     2.7988317569977124    1.6159062337504435    4.5704731515778585
 Ga  Li  Sn 
   4   1   1
Direct
  0.3959706110524834  0.9414681715299656  0.1132870887922425
  0.8760718922527907  0.5129064135586857  0.2358394866412348
  0.4055181482064632  0.5869777350165249  0.7683980357936325
  0.4197481904687315  0.3137432191545860  0.3666446951634802
  0.9491919991324603  0.8277981482664231  0.5564568473178818
 -0.0093816379070776  0.0617543454296636  0.9104128632355218
