Ga Li Sn
 1.0000000000000000
     5.5976636252297984    0.0000000000000000    0.0000000000000000
     2.7988318126003406    4.8477188386688370    0.0000000000000000
     2.7988317569977124    1.6159062337504435    4.5704731515778585
 Ga  Li  Sn 
   4   1   1
Direct
  0.3427318763818310  1.0985962174776056 -0.0659166268066224
  0.6664995216738512  0.6723845253760056  0.3516902997790730
  0.3116230515827161  0.5006827821840497  1.0749775033776816
  0.7685627995613913  0.1098693645748474  0.3408963195158407
  1.0154879321583969  0.5671716726902610  0.7794325688224593
 -0.0084028971627591  0.0645550002661530  0.7671594804952842
