Li Sn
 1.0000000000000000
     4.7973720778140310    0.0000000000000000    0.0000000000000000
    -0.0000251222414037    5.9587259176797565    0.0000000000000000
     0.0017774158129466   -2.9865614573967809    5.1551081262064802
 Li  Sn 
   6   2
Direct
  0.2106993167243534  0.5585245209844204  1.2181987496839510
  0.2493426434933209  1.0027892015138664  0.7100561996047974
  0.7365089050946769  0.3885632047868652 -0.0867632212850778
  0.7454500197495221  0.2910935070837862  0.3267184750215241
  0.7005180219780459  0.7804034562059999 -0.1663818997110097
  0.2738902919288788  0.0106680458385899  0.1891682947771073
  0.6716271039548602  0.8488279024540805  0.3320124117389706
  0.1922800568855316  0.4282765514230402  0.7053687973214675
