Ga Li Sn
 1.0000000000000000
     6.7917845563898833    0.0000000000000000    0.0000000000000000
     4.4278948915724881    5.1499599928188031    0.0000000000000000
    -5.6098384808128374   -2.5749832331315616    2.8332871152883881
 Ga  Li  Sn 
   2   2   1
Direct
  0.5048072955081829  0.5577685123519085 -0.0516330768608212
  0.6447845246648347  1.2285351819349843  1.4929400954185152
 -0.8812592680746384  0.7334207115687350 -0.5220646849416472
 -0.6444262148222969  0.3209669325289158 -0.9948644223828064
  0.8460699068414906  1.1069020427012906  1.0431318133557113
