Ga Li Sn
 1.0000000000000000
     6.0925434332522874    0.0000000000000000    0.0000000000000000
     3.8297818567599453    4.5792085195300691    0.0000000000000000
     0.9180933456902378    0.1299176371189485    2.9740741499410959
 Ga  Li  Sn 
   2   1   1
Direct
  1.0733621192039575  0.1622714993200277  0.4319373626325019
  0.5792625758453974  0.5667157014705365  0.1308984623575689
  1.1280286561051729  0.5412695110775326  0.9025223759745331
  0.6110553826900554  1.0533704998010587  0.3501933069657570
