Ga Li Sn
 1.0000000000000000
     5.3165760164578293    0.0000000000000000    0.0000000000000000
    -2.2500979889431876    4.8169533361060060    0.0000000000000000
    -0.0000000564524321   -0.0000001221207502    3.2253933011155849
 Ga  Li  Sn 
   2   1   1
Direct
  0.7536095068031244 -0.1477937145465076  0.3806339383050493
  0.2823593085422368  0.3202789033182184  0.3777700422851579
  0.3438017243369127  0.8547401129549973 -3.7939911979214171
 -0.2223388528167672  0.3522826206577556  0.7821011728551222
