Li Sn
 1.0000000000000000
     3.6973720824915488    0.0000000000000000    0.0000000000000000
    -0.0001014905693317    4.5681426064944937    0.0000000000000000
    -1.8461150410110827   -2.2748737326469510    4.2216096459931327
 Li  Sn 
   3   1
Direct
  0.0387348082801049  0.7009177595485917 -0.1365325241785859
  0.6086486854645913  0.1934771326551173  0.0332511513293906
  0.4100206264282005  0.5203911463556939  0.4316844318716395
 -0.1242276425570050  0.0405159419882415  0.5183875806112451
